p edge 20 36
e 1 15
e 1 17
e 2 6
e 2 9
e 2 12
e 2 15
e 3 14
e 3 15
e 4 12
e 4 14
e 5 14
e 5 16
e 6 9
e 6 10
e 6 12
e 6 16
e 6 17
e 6 18
e 7 15
e 7 16
e 8 9
e 8 14
e 8 19
e 9 11
e 9 14
e 9 17
e 9 19
e 11 12
e 11 19
e 12 15
e 12 18
e 13 15
e 13 17
e 13 18
e 15 16
e 16 19
Count vertices: 20
Count edges: 36